&GLOBAL
  PRINT_LEVEL LOW
  WALLTIME 1200000
   PROJECT Hydrobromane
!  RUN_TYPE WFN_OPT
!   RUN_TYPE GEO_OPT
  RUN_TYPE MD
   SEED 300
&END GLOBAL

!&EXT_RESTART
!EXTERNAL_FILE RESTART
!RESTART_POS T
!RESTART_VEL T
!RESTART_THERMOSTAT T
!&END EXT_RESTART

&MOTION

  &MD
   COMVEL_TOL 0.000005
   ENSEMBLE NVT
   STEPS 400000 
   TIMESTEP 1
   TEMPERATURE 300.0
!   TEMP_TOL 40

    &THERMOSTAT
      TYPE CSVR
      &CSVR
        TIMECON 100.
      &END CSVR
    &END THERMOSTAT
  &END MD
 
  &FREE_ENERGY
    &METADYN
       USE_PLUMED .TRUE.
       PLUMED_INPUT_FILE ./plumed.dat
    &END METADYN
  &END FREE_ENERGY

  &PRINT
   &TRAJECTORY
     FORMAT XYZ
     &EACH
       MD 10
     &END EACH
   &END TRAJECTORY
   &VELOCITIES 
    FORMAT XYZ
    &EACH
      MD 1000
    &END EACH
   &END VELOCITIES
   &RESTART
    &EACH
     MD 1
    &END EACH
   &END RESTART
   &RESTART_HISTORY
     &EACH
       MD 100000
     &END EACH
   &END RESTART_HISTORY
  &END PRINT


&END MOTION



&FORCE_EVAL
  METHOD Quickstep
  &DFT
   CHARGE 0
    &QS
      METHOD PM6
      !METHOD AM1
      &SE
      &END SE
    &END QS
    &SCF
      SCF_GUESS ATOMIC
      EPS_SCF 1.0E-5
      MAX_SCF 50
       &OUTER_SCF
          EPS_SCF 1.0E-7
          MAX_SCF 500
       &END
    &END SCF
  &END DFT


  &SUBSYS
    &CELL
      ABC 10.0 10.0 10.0
      PERIODIC NONE
    &END CELL

    &KIND H
      BASIS_SET DZVP-MOLOPT-SR-GTH-q1
      POTENTIAL GTH-PBE-q1
      ELEMENT H
    &END KIND

    &KIND C
      BASIS_SET  DZVP-MOLOPT-SR-GTH-q4
      POTENTIAL GTH-PBE-q4
      ELEMENT C
    &END KIND

    &KIND Br
      BASIS_SET  DZVP-MOLOPT-SR-GTH-q7
      POTENTIAL GTH-PBE-q7
      ELEMENT Br
    &END KIND

    &COORD
  C        -2.0252560312        0.7282012182       -1.5642922593
  C        -3.5078801156        0.1854751646       -1.8060231641
  H        -1.4710583070        0.8831009486       -2.4968172137
  H        -1.9906941007        1.7542373291       -1.0238745181
  C        -4.6264372572        0.8450220411       -0.9994118115
  H        -3.6558633695        0.3543448590       -2.8982919875
  H        -4.4009825767        1.9502793708       -0.8310396865
  H        -4.7565359774        0.3767452823       -0.0063639278
  H        -5.5491610574        0.7813278814       -1.5335725831
 Br        -0.9336582613       -0.5670185784       -0.5480849413
  H        -3.5521075314       -0.8823186209       -1.6014264710
   &END COORD
 &END SUBSYS

&END FORCE_EVAL
